GLPSOL--GLPK LP/MIP Solver 5.0
Parameter(s) specified in the command line:
 --lp ../modeles/20_494.lp --log 20_494.log
Reading problem data from '../modeles/20_494.lp'...
9961 rows, 19800 columns, 69220 non-zeros
9880 integer variables, all of which are binary
29787 lines were read
GLPK Integer Optimizer 5.0
9961 rows, 19800 columns, 69220 non-zeros
9880 integer variables, all of which are binary
Preprocessing...
9800 constraint coefficient(s) were reduced
9961 rows, 19780 columns, 69200 non-zeros
9880 integer variables, all of which are binary
Scaling...
 A: min|aij| =  6.556e-05  max|aij| =  4.000e+00  ratio =  6.101e+04
GM: min|aij| =  6.363e-02  max|aij| =  1.572e+01  ratio =  2.470e+02
EQ: min|aij| =  4.049e-03  max|aij| =  1.000e+00  ratio =  2.470e+02
2N: min|aij| =  3.906e-03  max|aij| =  1.763e+00  ratio =  4.514e+02
Constructing initial basis...
Size of triangular part is 9961
Solving LP relaxation...
GLPK Simplex Optimizer 5.0
9961 rows, 19780 columns, 69200 non-zeros
      0: obj =   4.000000000e+01 inf =   9.950e+01 (41)
Perturbing LP to avoid stalling [199]...
    539: obj =   2.584929475e-01 inf =   0.000e+00 (0)
Removing LP perturbation [1670]...
*  1670: obj =  -4.471439087e+00 inf =   1.913e-15 (0) 1
OPTIMAL LP SOLUTION FOUND
Integer optimization begins...
Long-step dual simplex will be used
+  1670: mip =     not found yet >=              -inf        (1; 0)
+  1766: mip =     not found yet >=  -4.471439087e+00        (97; 0)
+  1879: mip =     not found yet >=  -4.471439087e+00        (210; 0)
+  1998: mip =     not found yet >=  -4.471439087e+00        (328; 0)
+  2127: mip =     not found yet >=  -4.471439087e+00        (456; 0)
+  2263: mip =     not found yet >=  -4.471439087e+00        (591; 0)
+  2416: mip =     not found yet >=  -4.471439087e+00        (743; 0)
+  2585: mip =     not found yet >=  -4.471439087e+00        (911; 0)
+  2643: >>>>>  -4.471439087e+00 >=  -4.471439087e+00 < 0.1% (963; 0)
+  2643: mip =  -4.471439087e+00 >=     tree is empty   0.0% (0; 1925)
INTEGER OPTIMAL SOLUTION FOUND
Time used:   37.4 secs
Memory used: 28.7 Mb (30090556 bytes)
